(set-logic QF_LRA)
(declare-const rainy_walk Real)
(declare-const rainy_bus Real)
(declare-const rainy_row_sum Real)
(assert (= rainy_walk (/ 3 5)))
(assert (= rainy_bus (/ 3 5)))
(assert (= rainy_row_sum (+ rainy_walk rainy_bus)))
(assert (= rainy_row_sum 1))
(check-sat)
